CS5099-all-submission/Code-in-middle/CS5099_programming/picrossSolver/instance.param
language ESSENCE' 1.0
letting mainRow be 6
letting mainCol be 13
letting topRows be 3
letting leftCols be 7
letting leftMatrix be [
[5, 2, 1, 0, 0, 0, 0],
[5, 1, 0, 0, 0, 0, 0],
[3, 1, 2, 2, 0, 0, 0],
[3, 1, 1, 0, 0, 0, 0],
[3, 1, 2, 0, 0, 0, 0],
[2, 3, 1, 1, 0, 0, 0],
]
letting topMatrix be [
[3, 6, 6, 2, 2, 4, 1, 3, 1, 1, 3, 1, 1],
[1, 0, 0, 1, 1, 0, 0, 0, 1, 1, 0, 0, 1],
[0, 0, 0, 0, 0, 0, 0, 0, 0, 0, 0, 0, 0],
]

